SDVRP instances/p02/p02_00_tsplib0_split0.vrp
NAME:.\SDVRP_split
BEST_KNOWN: 0
COMMENT: 0
DIMENSION: 319
CAPACITY: 140
EDGE_WEIGHT_FORMAT: FUNCTION
EDGE_WEIGHT_TYPE: EXACT_2D
NODE_COORD_SECTION
1 0.00000 0.00000
2 -18 -18
3 -18 -18
4 -18 -18
5 -18 -18
6 -18 -18
7 -4 -14
8 -4 -14
9 -4 -14
10 -4 -14
11 -4 -14
12 -4 -14
13 -4 -14
14 -19 5
15 -19 5
16 -19 5
17 -19 5
18 -19 5
19 5 -5
20 5 -5
21 5 -5
22 15 -20
23 15 -20
24 -7 -6
25 -7 -6
26 -7 -6
27 -7 -6
28 -7 -6
29 -7 -6
30 10 10
31 10 10
32 15 5
33 15 5
34 15 5
35 -14 19
36 -14 19
37 0 26
38 0 26
39 0 26
40 0 26
41 0 26
42 0 26
43 0 26
44 15 25
45 15 25
46 15 25
47 15 25
48 -5 11
49 -5 11
50 -5 11
51 22 -5
52 22 -5
53 22 -5
54 22 -5
55 22 -5
56 22 -5
57 22 17
58 22 17
59 22 17
60 22 17
61 22 -16
62 22 -16
63 -19 -4
64 -19 -4
65 -19 -4
66 -19 -4
67 -19 -4
68 -19 -4
69 -7 4
70 -7 4
71 -7 4
72 -7 4
73 -7 4
74 -7 4
75 -7 4
76 -31 16
77 -31 16
78 -31 16
79 -31 16
80 -31 16
81 -31 16
82 -31 16
83 22 8
84 22 8
85 26 -26
86 26 -26
87 26 -26
88 4 -27
89 -14 -27
90 -14 -27
91 -14 -27
92 -14 -27
93 -14 -27
94 -14 -27
95 -29 -12
96 -29 -12
97 -29 -12
98 -29 -12
99 -29 -12
100 -29 -12
101 -33 3
102 -33 3
103 -33 3
104 -33 3
105 -33 3
106 -33 3
107 -33 3
108 -33 3
109 -23 24
110 1 6
111 1 6
112 1 6
113 1 6
114 1 6
115 15 -6
116 15 -6
117 15 -6
118 15 -6
119 -5 -24
120 -5 -24
121 12 -14
122 12 -14
123 12 -14
124 12 -14
125 12 -14
126 12 -14
127 12 -14
128 3 -14
129 3 -14
130 3 -14
131 -9 36
132 -9 36
133 -9 36
134 -9 36
135 -9 36
136 -9 36
137 -18 13
138 -14 -11
139 -14 -11
140 -14 -11
141 -14 -11
142 -14 -11
143 -14 -11
144 -14 -11
145 -14 -11
146 10 0
147 10 0
148 10 0
149 10 0
150 10 0
151 10 0
152 15 10
153 15 10
154 15 10
155 15 10
156 14 -30
157 14 -30
158 14 -30
159 14 -30
160 14 -30
161 14 -30
162 20 -25
163 7 26
164 7 26
165 7 26
166 7 26
167 7 26
168 -10 20
169 -10 20
170 -10 20
171 -10 10
172 -10 10
173 -10 10
174 -10 10
175 -10 10
176 -10 10
177 -28 -23
178 -28 -23
179 -25 -26
180 -25 -26
181 -25 -26
182 -25 -26
183 -25 -26
184 -24 -21
185 -24 -21
186 -24 -21
187 -24 -21
188 -24 -21
189 -19 8
190 -19 8
191 -19 8
192 -19 8
193 10 -10
194 10 -10
195 11 2
196 11 2
197 11 2
198 11 2
199 11 2
200 11 2
201 11 2
202 11 2
203 10 -25
204 10 -25
205 10 -25
206 10 -25
207 10 -25
208 10 -25
209 8 -19
210 8 -19
211 8 -19
212 8 -19
213 8 -19
214 8 -19
215 8 -19
216 -28 -2
217 -28 -2
218 -28 -2
219 -28 -2
220 -28 -2
221 -25 16
222 -25 16
223 -25 16
224 -11 -1
225 -11 -1
226 -11 -1
227 -11 -1
228 -11 -1
229 -11 -1
230 14 -2
231 14 -2
232 14 -2
233 14 -2
234 14 -2
235 14 -2
236 15 17
237 15 17
238 15 17
239 27 1
240 27 1
241 27 1
242 -30 30
243 -34 -15
244 -34 -15
245 -34 -15
246 -34 -15
247 -34 -15
248 -34 -15
249 -34 -15
250 25 -13
251 0 20
252 0 20
253 30 24
254 30 24
255 30 24
256 30 24
257 30 24
258 24 -36
259 24 -36
260 24 -36
261 24 -36
262 24 -36
263 24 -36
264 24 -36
265 -4 -34
266 -4 -34
267 -10 -20
268 -10 -20
269 -10 -20
270 -10 -20
271 -10 -20
272 -20 -10
273 -20 -10
274 -20 -10
275 -20 -10
276 -20 -10
277 -25 -35
278 10 30
279 10 30
280 10 30
281 17 32
282 17 32
283 17 32
284 17 32
285 5 2
286 5 2
287 5 2
288 -2 -7
289 -2 -7
290 -2 -7
291 -2 -7
292 10 -36
293 10 -36
294 26 -32
295 26 -32
296 26 -32
297 26 -32
298 26 -32
299 19 -35
300 19 -35
301 19 -35
302 -5 20
303 -13 -16
304 -13 -16
305 -13 -16
306 -13 -16
307 -13 -16
308 -13 -16
309 0 -20
310 0 -20
311 0 -20
312 0 -20
313 0 -3
314 0 -3
315 0 -3
316 0 -3
317 0 -3
318 0 -3
319 0 -3
DEMAND_SECTION
1 0
2 14
3 1
4 1
5 1
6 1
7 14
8 7
9 1
10 1
11 1
12 1
13 1
14 7
15 1
16 1
17 1
18 1
19 28
20 1
21 1
22 14
23 7
24 14
25 1
26 1
27 1
28 1
29 1
30 14
31 1
32 14
33 1
34 1
35 28
36 1
37 14
38 7
39 1
40 1
41 1
42 1
43 1
44 28
45 7
46 1
47 1
48 14
49 1
50 1
51 7
52 1
53 1
54 1
55 1
56 1
57 28
58 1
59 1
60 1
61 7
62 1
63 14
64 1
65 1
66 1
67 1
68 1
69 14
70 1
71 1
72 1
73 1
74 1
75 1
76 7
77 1
78 1
79 1
80 1
81 1
82 1
83 14
84 1
85 14
86 7
87 1
88 28
89 7
90 1
91 1
92 1
93 1
94 1
95 1
96 1
97 1
98 1
99 1
100 1
101 14
102 7
103 1
104 1
105 1
106 1
107 1
108 1
109 14
110 14
111 1
112 1
113 1
114 1
115 14
116 1
117 1
118 1
119 28
120 1
121 7
122 1
123 1
124 1
125 1
126 1
127 1
128 14
129 7
130 1
131 14
132 7
133 1
134 1
135 1
136 1
137 28
138 14
139 7
140 1
141 1
142 1
143 1
144 1
145 1
146 14
147 1
148 1
149 1
150 1
151 1
152 7
153 1
154 1
155 1
156 7
157 1
158 1
159 1
160 1
161 1
162 14
163 14
164 7
165 1
166 1
167 1
168 14
169 1
170 1
171 28
172 1
173 1
174 1
175 1
176 1
177 14
178 1
179 7
180 1
181 1
182 1
183 1
184 14
185 1
186 1
187 1
188 1
189 14
190 1
191 1
192 1
193 14
194 7
195 14
196 7
197 1
198 1
199 1
200 1
201 1
202 1
203 14
204 1
205 1
206 1
207 1
208 1
209 14
210 1
211 1
212 1
213 1
214 1
215 1
216 1
217 1
218 1
219 1
220 1
221 14
222 7
223 1
224 7
225 1
226 1
227 1
228 1
229 1
230 14
231 1
232 1
233 1
234 1
235 1
236 14
237 7
238 1
239 14
240 1
241 1
242 7
243 14
244 7
245 1
246 1
247 1
248 1
249 1
250 14
251 14
252 7
253 14
254 7
255 1
256 1
257 1
258 7
259 1
260 1
261 1
262 1
263 1
264 1
265 14
266 1
267 14
268 1
269 1
270 1
271 1
272 7
273 1
274 1
275 1
276 1
277 28
278 7
279 1
280 1
281 28
282 7
283 1
284 1
285 28
286 1
287 1
288 7
289 1
290 1
291 1
292 7
293 1
294 7
295 1
296 1
297 1
298 1
299 1
300 1
301 1
302 1
303 1
304 1
305 1
306 1
307 1
308 1
309 7
310 1
311 1
312 1
313 14
314 1
315 1
316 1
317 1
318 1
319 1
DEPOT_SECTION
1
-1
EOF