SDVRP instances/p02/p02_00_tsplib0_split0.sol
318 -19 18 20 116 117 114 115 229 230 234 198 196 197 195 200 201 194 199 286 284 285 -24 25 27 26 28 23 142 143 140 144 141 139 137 138 63 64 67 66 65 62 17 16 15 14 13 191 188 190 189 225 227 224 226 228 223 68 70 69 72 71 -29 30 151 154 153 152 237 236 235 57 56 59 58 252 254 255 256 253 83 82 31 33 32 -46 43 45 44 283 281 280 282 279 277 278 164 162 166 163 165 250 251 110 112 113 -73 74 175 172 171 173 170 174 136 35 34 168 167 169 49 48 47 109 111 -146 149 148 150 147 145 232 231 233 240 238 239 55 52 50 54 51 53 249 60 61 21 22 208 211 212 213 127 128 129 287 290 -193 192 124 121 126 125 122 120 123 161 86 85 84 294 297 295 293 296 262 260 263 259 257 261 258 299 300 298 292 291 158 155 160 159 156 157 206 202 207 204 205 203 210 214 209 -217 216 219 218 215 104 105 101 100 103 102 107 106 76 77 75 78 81 79 80 222 220 221 108 241 130 132 135 133 134 131 42 38 40 39 41 37 36 301 -274 271 273 272 275 94 95 98 97 99 96 244 245 243 246 242 247 248 177 176 276 179 181 180 178 182 185 183 184 187 186 3 1 5 4 2 307 302 306 304 303 305 -288 289 10 7 9 11 8 6 12 267 269 270 266 268 92 93 91 88 90 89 118 119 265 264 87 311 310 309 308 -315 318 313 314 312 317 316 0 





OBJ=
851.922
BEST_KNOWN=
0.000